k = 30;
b = 15;
AtomicConstraints =  [|
2, 1|
	2, 5|
	2, 6|
	2, 7|
	2, 21|
	2, 24|
	2, 20|
	2, 18|
	2, 19|
	2, 17|
	2, 27|
	2, 26|
	2, 28|
	2, 25|
	2, 22|
	2, 30|
	2, 29|
	3, 1|
	3, 5|
	3, 6|
	3, 7|
	3, 23|
	3, 21|
	3, 24|
	3, 20|
	3, 18|
	3, 19|
	3, 17|
	3, 27|
	3, 26|
	3, 28|
	3, 25|
	3, 22|
	3, 30|
	3, 29|
	4, 1|
	4, 5|
	4, 6|
	4, 7|
	4, 10|
	4, 23|
	4, 21|
	4, 24|
	4, 20|
	4, 18|
	4, 19|
	4, 17|
	4, 27|
	4, 26|
	4, 28|
	4, 25|
	4, 22|
	4, 30|
	4, 29|
	5, 1|
	6, 1|
	7, 1|
	8, 1|
	8, 16|
	8, 23|
	8, 21|
	8, 24|
	8, 20|
	8, 18|
	8, 19|
	8, 17|
	8, 27|
	8, 26|
	8, 28|
	8, 25|
	8, 22|
	8, 30|
	8, 29|
	9, 1|
	9, 16|
	9, 23|
	9, 21|
	9, 24|
	9, 20|
	9, 18|
	9, 19|
	9, 17|
	9, 27|
	9, 26|
	9, 28|
	9, 25|
	9, 22|
	9, 30|
	9, 29|
	10, 1|
	10, 16|
	10, 23|
	10, 21|
	10, 24|
	10, 20|
	10, 18|
	10, 19|
	10, 17|
	10, 27|
	10, 26|
	10, 28|
	10, 25|
	10, 22|
	10, 30|
	10, 29|
	11, 1|
	11, 14|
	12, 1|
	12, 6|
	12, 7|
	12, 14|
	13, 1|
	13, 5|
	13, 6|
	13, 7|
	13, 14|
	21, 23|
	21, 24|
	21, 20|
	21, 17|
	21, 28|
	24, 20|
	24, 17|
	24, 28|
	18, 20|
	18, 17|
	18, 28|
	19, 24|
	19, 20|
	19, 18|
	19, 17|
	19, 27|
	19, 28|
	19, 30|
	27, 20|
	27, 17|
	27, 28|
	27, 30|
	26, 20|
	26, 18|
	26, 19|
	26, 17|
	26, 27|
	26, 28|
	26, 25|
	26, 30|
	26, 29|
	25, 28|
	25, 30|
	25, 29|
	22, 25|
	22, 30|
	22, 29|
	29, 30|];
DisjunctiveConstraints =  [|2, 24, 2, 9|
	3, 4, 3, 2|
	3, 6, 3, 21|
	3, 23, 3, 8|
	4, 9, 24, 4|
	4, 10, 25, 4|
	6, 5, 6, 7|
	9, 1, 9, 16|
	9, 8, 9, 10|
	12, 6, 21, 12|
	12, 7, 12, 22|
	13, 30, 15, 13|
	13, 29, 14, 13|
	18, 24, 18, 27|
	17, 20, 17, 28|
	26, 20, 5, 26|];
SoftAtomicConstraints =  [|
3, 2|
4, 3|
10, 5|
5, 6|
6, 7|
8, 9|
9, 10|
12, 11|
13, 12|
2, 13|
14, 15|
20, 17|
24, 18|
21, 19|
23, 20|
26, 22|
16, 23|
19, 25|
18, 27|
17, 28|
27, 29|
28, 30|];
DirectSuccessors =  [];
